p cnf 1320
-20 -412
-21 -415
-22 -418
-23 -421
-24 -424
-25 -427
-26 -430
-27 -433
-28 -436
-29 -439
-30 -442
-31 -445
-32 -448
-33 -451
-34 -454
-35 -457
-36 -460
-37 -463
-38 -466
-39 467
-40 468
-41 469
-42 470
-43 471
-44 472
-45 473
-46 474
-47 475
-48 476
-49 -21
-49 -22
21 22 49
-50 -23
-50 -24
23 24 50
-51 -25
-51 -26
25 26 51
-52 -27
-52 -28
27 28 52
-53 -29
-53 -30
29 30 53
-54 -31
-54 -32
31 32 54
-55 -33
-55 -34
33 34 55
-56 -35
-56 -36
35 36 56
-57 -37
-57 -38
37 38 57
-58 -39
-58 -40
39 40 58
-59 -41
-59 -42
41 42 59
-60 -43
-60 -44
43 44 60
-61 -45
-61 -46
45 46 61
-62 -47
-62 -48
47 48 62
-63 49
-63 50
-49 -50 63
-64 51
-64 52
-51 -52 64
-65 53
-65 54
-53 -54 65
-66 55
-66 56
-55 -56 66
-67 57
-67 58
-57 -58 67
-68 59
-68 60
-59 -60 68
-69 61
-69 62
-61 -62 69
-70 63
-70 64
-63 -64 70
-71 65
-71 66
-65 -66 71
-72 67
-72 68
-67 -68 72
-73 70
-73 71
-70 -71 73
-74 69
-74 72
-69 -72 74
-75 73
-75 74
-73 -74 75
-76 -20
-76 21
20 -21 76
-77 20
-77 -21
-20 21 77
-78 -76
-78 -77
76 77 78
-79 20
-79 21
-20 -21 79
-80 -20
-80 -78
20 78 80
-81 20
-81 78
-20 -78 81
-82 -80
-82 -81
80 81 82
-83 20
-83 -78
-20 78 83
-84 -79
-84 -83
79 83 84
-85 -21
-85 22
21 -22 85
-86 21
-86 -22
-21 22 86
-87 -85
-87 -86
85 86 87
-88 21
-88 22
-21 -22 88
-89 84
-89 -87
-84 87 89
-90 -84
-90 87
84 -87 90
-91 -89
-91 -90
89 90 91
-92 -84
-92 -87
84 87 92
-93 -88
-93 -92
88 92 93
-94 -22
-94 23
22 -23 94
-95 22
-95 -23
-22 23 95
-96 -94
-96 -95
94 95 96
-97 22
-97 23
-22 -23 97
-98 93
-98 -96
-93 96 98
-99 -93
-99 96
93 -96 99
-100 -98
-100 -99
98 99 100
-101 -93
-101 -96
93 96 101
-102 -97
-102 -101
97 101 102
-103 -23
-103 24
23 -24 103
-104 23
-104 -24
-23 24 104
-105 -103
-105 -104
103 104 105
-106 23
-106 24
-23 -24 106
-107 102
-107 -105
-102 105 107
-108 -102
-108 105
102 -105 108
-109 -107
-109 -108
107 108 109
-110 -102
-110 -105
102 105 110
-111 -106
-111 -110
106 110 111
-112 -24
-112 25
24 -25 112
-113 24
-113 -25
-24 25 113
-114 -112
-114 -113
112 113 114
-115 24
-115 25
-24 -25 115
-116 111
-116 -114
-111 114 116
-117 -111
-117 114
111 -114 117
-118 -116
-118 -117
116 117 118
-119 -111
-119 -114
111 114 119
-120 -115
-120 -119
115 119 120
-121 -25
-121 26
25 -26 121
-122 25
-122 -26
-25 26 122
-123 -121
-123 -122
121 122 123
-124 25
-124 26
-25 -26 124
-125 120
-125 -123
-120 123 125
-126 -120
-126 123
120 -123 126
-127 -125
-127 -126
125 126 127
-128 -120
-128 -123
120 123 128
-129 -124
-129 -128
124 128 129
-130 -26
-130 27
26 -27 130
-131 26
-131 -27
-26 27 131
-132 -130
-132 -131
130 131 132
-133 26
-133 27
-26 -27 133
-134 129
-134 -132
-129 132 134
-135 -129
-135 132
129 -132 135
-136 -134
-136 -135
134 135 136
-137 -129
-137 -132
129 132 137
-138 -133
-138 -137
133 137 138
-139 -27
-139 28
27 -28 139
-140 27
-140 -28
-27 28 140
-141 -139
-141 -140
139 140 141
-142 27
-142 28
-27 -28 142
-143 138
-143 -141
-138 141 143
-144 -138
-144 141
138 -141 144
-145 -143
-145 -144
143 144 145
-146 -138
-146 -141
138 141 146
-147 -142
-147 -146
142 146 147
-148 -28
-148 29
28 -29 148
-149 28
-149 -29
-28 29 149
-150 -148
-150 -149
148 149 150
-151 28
-151 29
-28 -29 151
-152 147
-152 -150
-147 150 152
-153 -147
-153 150
147 -150 153
-154 -152
-154 -153
152 153 154
-155 -147
-155 -150
147 150 155
-156 -151
-156 -155
151 155 156
-157 -29
-157 30
29 -30 157
-158 29
-158 -30
-29 30 158
-159 -157
-159 -158
157 158 159
-160 29
-160 30
-29 -30 160
-161 156
-161 -159
-156 159 161
-162 -156
-162 159
156 -159 162
-163 -161
-163 -162
161 162 163
-164 -156
-164 -159
156 159 164
-165 -160
-165 -164
160 164 165
-166 -30
-166 31
30 -31 166
-167 30
-167 -31
-30 31 167
-168 -166
-168 -167
166 167 168
-169 30
-169 31
-30 -31 169
-170 165
-170 -168
-165 168 170
-171 -165
-171 168
165 -168 171
-172 -170
-172 -171
170 171 172
-173 -165
-173 -168
165 168 173
-174 -169
-174 -173
169 173 174
-175 -31
-175 32
31 -32 175
-176 31
-176 -32
-31 32 176
-177 -175
-177 -176
175 176 177
-178 31
-178 32
-31 -32 178
-179 174
-179 -177
-174 177 179
-180 -174
-180 177
174 -177 180
-181 -179
-181 -180
179 180 181
-182 -174
-182 -177
174 177 182
-183 -178
-183 -182
178 182 183
-184 -32
-184 33
32 -33 184
-185 32
-185 -33
-32 33 185
-186 -184
-186 -185
184 185 186
-187 32
-187 33
-32 -33 187
-188 183
-188 -186
-183 186 188
-189 -183
-189 186
183 -186 189
-190 -188
-190 -189
188 189 190
-191 -183
-191 -186
183 186 191
-192 -187
-192 -191
187 191 192
-193 -33
-193 34
33 -34 193
-194 33
-194 -34
-33 34 194
-195 -193
-195 -194
193 194 195
-196 33
-196 34
-33 -34 196
-197 192
-197 -195
-192 195 197
-198 -192
-198 195
192 -195 198
-199 -197
-199 -198
197 198 199
-200 -192
-200 -195
192 195 200
-201 -196
-201 -200
196 200 201
-202 -34
-202 35
34 -35 202
-203 34
-203 -35
-34 35 203
-204 -202
-204 -203
202 203 204
-205 34
-205 35
-34 -35 205
-206 201
-206 -204
-201 204 206
-207 -201
-207 204
201 -204 207
-208 -206
-208 -207
206 207 208
-209 -201
-209 -204
201 204 209
-210 -205
-210 -209
205 209 210
-211 -35
-211 36
35 -36 211
-212 35
-212 -36
-35 36 212
-213 -211
-213 -212
211 212 213
-214 35
-214 36
-35 -36 214
-215 210
-215 -213
-210 213 215
-216 -210
-216 213
210 -213 216
-217 -215
-217 -216
215 216 217
-218 -210
-218 -213
210 213 218
-219 -214
-219 -218
214 218 219
-220 -36
-220 37
36 -37 220
-221 36
-221 -37
-36 37 221
-222 -220
-222 -221
220 221 222
-223 36
-223 37
-36 -37 223
-224 219
-224 -222
-219 222 224
-225 -219
-225 222
219 -222 225
-226 -224
-226 -225
224 225 226
-227 -219
-227 -222
219 222 227
-228 -223
-228 -227
223 227 228
-229 -37
-229 38
37 -38 229
-230 37
-230 -38
-37 38 230
-231 -229
-231 -230
229 230 231
-232 37
-232 38
-37 -38 232
-233 228
-233 -231
-228 231 233
-234 -228
-234 231
228 -231 234
-235 -233
-235 -234
233 234 235
-236 -228
-236 -231
228 231 236
-237 -232
-237 -236
232 236 237
-238 -38
-238 39
38 -39 238
-239 38
-239 -39
-38 39 239
-240 -238
-240 -239
238 239 240
-241 38
-241 39
-38 -39 241
-242 237
-242 -240
-237 240 242
-243 -237
-243 240
237 -240 243
-244 -242
-244 -243
242 243 244
-245 -237
-245 -240
237 240 245
-246 -241
-246 -245
241 245 246
-247 -39
-247 40
39 -40 247
-248 39
-248 -40
-39 40 248
-249 -247
-249 -248
247 248 249
-250 39
-250 40
-39 -40 250
-251 246
-251 -249
-246 249 251
-252 -246
-252 249
246 -249 252
-253 -251
-253 -252
251 252 253
-254 -246
-254 -249
246 249 254
-255 -250
-255 -254
250 254 255
-256 -40
-256 41
40 -41 256
-257 40
-257 -41
-40 41 257
-258 -256
-258 -257
256 257 258
-259 40
-259 41
-40 -41 259
-260 255
-260 -258
-255 258 260
-261 -255
-261 258
255 -258 261
-262 -260
-262 -261
260 261 262
-263 -255
-263 -258
255 258 263
-264 -259
-264 -263
259 263 264
-265 -41
-265 42
41 -42 265
-266 41
-266 -42
-41 42 266
-267 -265
-267 -266
265 266 267
-268 41
-268 42
-41 -42 268
-269 264
-269 -267
-264 267 269
-270 -264
-270 267
264 -267 270
-271 -269
-271 -270
269 270 271
-272 -264
-272 -267
264 267 272
-273 -268
-273 -272
268 272 273
-274 -42
-274 43
42 -43 274
-275 42
-275 -43
-42 43 275
-276 -274
-276 -275
274 275 276
-277 42
-277 43
-42 -43 277
-278 273
-278 -276
-273 276 278
-279 -273
-279 276
273 -276 279
-280 -278
-280 -279
278 279 280
-281 -273
-281 -276
273 276 281
-282 -277
-282 -281
277 281 282
-283 -43
-283 44
43 -44 283
-284 43
-284 -44
-43 44 284
-285 -283
-285 -284
283 284 285
-286 43
-286 44
-43 -44 286
-287 282
-287 -285
-282 285 287
-288 -282
-288 285
282 -285 288
-289 -287
-289 -288
287 288 289
-290 -282
-290 -285
282 285 290
-291 -286
-291 -290
286 290 291
-292 -44
-292 45
44 -45 292
-293 44
-293 -45
-44 45 293
-294 -292
-294 -293
292 293 294
-295 44
-295 45
-44 -45 295
-296 291
-296 -294
-291 294 296
-297 -291
-297 294
291 -294 297
-298 -296
-298 -297
296 297 298
-299 -291
-299 -294
291 294 299
-300 -295
-300 -299
295 299 300
-301 -45
-301 46
45 -46 301
-302 45
-302 -46
-45 46 302
-303 -301
-303 -302
301 302 303
-304 45
-304 46
-45 -46 304
-305 300
-305 -303
-300 303 305
-306 -300
-306 303
300 -303 306
-307 -305
-307 -306
305 306 307
-308 -300
-308 -303
300 303 308
-309 -304
-309 -308
304 308 309
-310 -46
-310 47
46 -47 310
-311 46
-311 -47
-46 47 311
-312 -310
-312 -311
310 311 312
-313 46
-313 47
-46 -47 313
-314 309
-314 -312
-309 312 314
-315 -309
-315 312
309 -312 315
-316 -314
-316 -315
314 315 316
-317 -309
-317 -312
309 312 317
-318 -313
-318 -317
313 317 318
-319 -47
-319 48
47 -48 319
-320 47
-320 -48
-47 48 320
-321 -319
-321 -320
319 320 321
-322 47
-322 48
-47 -48 322
-323 318
-323 -321
-318 321 323
-324 -318
-324 321
318 -321 324
-325 -323
-325 -324
323 324 325
-326 -318
-326 -321
318 321 326
-327 -322
-327 -326
322 326 327
-328 20
-328 -82
-20 82 328
-329 -20
-329 22
20 -22 329
-330 -328
-330 -329
328 329 330
-331 20
-331 -91
-20 91 331
-332 -20
-332 23
20 -23 332
-333 -331
-333 -332
331 332 333
-334 20
-334 -100
-20 100 334
-335 -20
-335 24
20 -24 335
-336 -334
-336 -335
334 335 336
-337 20
-337 -109
-20 109 337
-338 -20
-338 25
20 -25 338
-339 -337
-339 -338
337 338 339
-340 20
-340 -118
-20 118 340
-341 -20
-341 26
20 -26 341
-342 -340
-342 -341
340 341 342
-343 20
-343 -127
-20 127 343
-344 -20
-344 27
20 -27 344
-345 -343
-345 -344
343 344 345
-346 20
-346 -136
-20 136 346
-347 -20
-347 28
20 -28 347
-348 -346
-348 -347
346 347 348
-349 20
-349 -145
-20 145 349
-350 -20
-350 29
20 -29 350
-351 -349
-351 -350
349 350 351
-352 20
-352 -154
-20 154 352
-353 -20
-353 30
20 -30 353
-354 -352
-354 -353
352 353 354
-355 20
-355 -163
-20 163 355
-356 -20
-356 31
20 -31 356
-357 -355
-357 -356
355 356 357
-358 20
-358 -172
-20 172 358
-359 -20
-359 32
20 -32 359
-360 -358
-360 -359
358 359 360
-361 20
-361 -181
-20 181 361
-362 -20
-362 33
20 -33 362
-363 -361
-363 -362
361 362 363
-364 20
-364 -190
-20 190 364
-365 -20
-365 34
20 -34 365
-366 -364
-366 -365
364 365 366
-367 20
-367 -199
-20 199 367
-368 -20
-368 35
20 -35 368
-369 -367
-369 -368
367 368 369
-370 20
-370 -208
-20 208 370
-371 -20
-371 36
20 -36 371
-372 -370
-372 -371
370 371 372
-373 20
-373 -217
-20 217 373
-374 -20
-374 37
20 -37 374
-375 -373
-375 -374
373 374 375
-376 20
-376 -226
-20 226 376
-377 -20
-377 38
20 -38 377
-378 -376
-378 -377
376 377 378
-379 20
-379 -235
-20 235 379
-380 -20
-380 39
20 -39 380
-381 -379
-381 -380
379 380 381
-382 20
-382 -244
-20 244 382
-383 -20
-383 40
20 -40 383
-384 -382
-384 -383
382 383 384
-385 20
-385 -253
-20 253 385
-386 -20
-386 41
20 -41 386
-387 -385
-387 -386
385 386 387
-388 20
-388 -262
-20 262 388
-389 -20
-389 42
20 -42 389
-390 -388
-390 -389
388 389 390
-391 20
-391 -271
-20 271 391
-392 -20
-392 43
20 -43 392
-393 -391
-393 -392
391 392 393
-394 20
-394 -280
-20 280 394
-395 -20
-395 44
20 -44 395
-396 -394
-396 -395
394 395 396
-397 20
-397 -289
-20 289 397
-398 -20
-398 45
20 -45 398
-399 -397
-399 -398
397 398 399
-400 20
-400 -298
-20 298 400
-401 -20
-401 46
20 -46 401
-402 -400
-402 -401
400 401 402
-403 20
-403 -307
-20 307 403
-404 -20
-404 47
20 -47 404
-405 -403
-405 -404
403 404 405
-406 20
-406 -316
-20 316 406
-407 -20
-407 48
20 -48 407
-408 -406
-408 -407
406 407 408
-409 20
-409 -325
-20 325 409
-410 1
-410 75
-1 -75 410
-411 -75
-411 76
75 -76 411
-412 -410
-412 -411
410 411 412
-413 2
-413 75
-2 -75 413
-414 -75
-414 -330
75 330 414
-415 -413
-415 -414
413 414 415
-416 3
-416 75
-3 -75 416
-417 -75
-417 -333
75 333 417
-418 -416
-418 -417
416 417 418
-419 4
-419 75
-4 -75 419
-420 -75
-420 -336
75 336 420
-421 -419
-421 -420
419 420 421
-422 5
-422 75
-5 -75 422
-423 -75
-423 -339
75 339 423
-424 -422
-424 -423
422 423 424
-425 6
-425 75
-6 -75 425
-426 -75
-426 -342
75 342 426
-427 -425
-427 -426
425 426 427
-428 7
-428 75
-7 -75 428
-429 -75
-429 -345
75 345 429
-430 -428
-430 -429
428 429 430
-431 8
-431 75
-8 -75 431
-432 -75
-432 -348
75 348 432
-433 -431
-433 -432
431 432 433
-434 9
-434 75
-9 -75 434
-435 -75
-435 -351
75 351 435
-436 -434
-436 -435
434 435 436
-437 10
-437 75
-10 -75 437
-438 -75
-438 -354
75 354 438
-439 -437
-439 -438
437 438 439
-440 11
-440 75
-11 -75 440
-441 -75
-441 -357
75 357 441
-442 -440
-442 -441
440 441 442
-443 12
-443 75
-12 -75 443
-444 -75
-444 -360
75 360 444
-445 -443
-445 -444
443 444 445
-446 13
-446 75
-13 -75 446
-447 -75
-447 -363
75 363 447
-448 -446
-448 -447
446 447 448
-449 14
-449 75
-14 -75 449
-450 -75
-450 -366
75 366 450
-451 -449
-451 -450
449 450 451
-452 15
-452 75
-15 -75 452
-453 -75
-453 -369
75 369 453
-454 -452
-454 -453
452 453 454
-455 16
-455 75
-16 -75 455
-456 -75
-456 -372
75 372 456
-457 -455
-457 -456
455 456 457
-458 17
-458 75
-17 -75 458
-459 -75
-459 -375
75 375 459
-460 -458
-460 -459
458 459 460
-461 18
-461 75
-18 -75 461
-462 -75
-462 -378
75 378 462
-463 -461
-463 -462
461 462 463
-464 19
-464 75
-19 -75 464
-465 -75
-465 -381
75 381 465
-466 -464
-466 -465
464 465 466
-467 -75
-467 -384
75 384 467
-468 -75
-468 -387
75 387 468
-469 -75
-469 -390
75 390 469
-470 -75
-470 -393
75 393 470
-471 -75
-471 -396
75 396 471
-472 -75
-472 -399
75 399 472
-473 -75
-473 -402
75 402 473
-474 -75
-474 -405
75 405 474
-475 -75
-475 -408
75 408 475
-476 -75
-476 409
75 -409 476
-477 -48
-477 327
48 -327 477
-478 20
-478 -477
-20 477 478
478
